============================[ Problem Statistics ]=============================
|                                                                             |
|  Number of variables:          1199                                         |
|  Number of clauses:            6250                                         |
|  Parse time:                   0.00 s                                       |
|  Simplification time:          0.00 s                                       |
|                                                                             |
============================[ Search Statistics ]==============================
| Conflicts |          ORIGINAL         |          LEARNT          | Progress |
|           |    Vars  Clauses Literals |    Limit  Clauses Lit/Cl |          |
===============================================================================
|       100 |    1199     6250    18750 |     2291      100     10 |  0.000 % |
|       250 |    1199     6250    18750 |     2520      250     11 |  0.000 % |
|       475 |    1199     6250    18750 |     2772      475     15 |  0.000 % |
|       812 |    1199     6250    18750 |     3050      812     22 |  0.000 % |
|      1318 |    1199     6250    18750 |     3355     1318     24 |  0.000 % |
|      2077 |    1199     6250    18750 |     3690     2077     26 |  0.000 % |
|      3216 |    1199     6250    18750 |     4059     3216     29 |  0.000 % |
|      4924 |    1199     6250    18750 |     4465     2815     24 |  0.000 % |
|      7486 |    1199     6250    18750 |     4912     3060     31 |  0.000 % |
|     11330 |    1199     6250    18750 |     5403     4407     29 |  0.000 % |
|     17096 |    1199     6250    18750 |     5943     4659     33 |  0.000 % |
|     25745 |    1199     6250    18750 |     6538     4270     27 |  0.000 % |
|     38719 |    1199     6250    18750 |     7192     3802     42 |  0.000 % |
|     58180 |    1199     6250    18750 |     7911     4892     25 |  0.000 % |
|     87372 |    1199     6250    18750 |     8702     5855     45 |  0.000 % |
|    131161 |    1199     6250    18750 |     9572     5338     34 |  0.000 % |
|    196845 |    1199     6250    18750 |    10530     7635     48 |  0.000 % |
|    295371 |    1199     6250    18750 |    11583    10014     39 |  0.000 % |
|    443160 |    1199     6250    18750 |    12741    10833     50 |  0.000 % |
|    664843 |    1199     6250    18750 |    14015     6630     32 |  0.000 % |
|    997368 |    1199     6250    18750 |    15417    12948     55 |  0.000 % |
|   1496156 |    1199     6250    18750 |    16958    12749     31 |  0.000 % |
|   2244338 |    1199     6250    18750 |    18654    16376     67 |  0.000 % |
|   3366612 |    1199     6250    18750 |    20520    18611     34 |  0.000 % |
|   5050023 |    1199     6250    18750 |    22572    14699     59 |  0.000 % |
|   7575139 |    1199     6250    18750 |    24829    15083     50 |  0.000 % |
|  11362814 |    1199     6250    18750 |    27312    21748     55 |  0.000 % |
|  17044326 |    1199     6250    18750 |    30043    26114     54 |  0.000 % |
|  25566595 |    1199     6250    18750 |    33048    28349     60 |  0.000 % |
|  38349998 |    1199     6250    18750 |    36352    21812     52 |  0.000 % |
|  57525103 |    1199     6250    18750 |    39988    22005     60 |  0.000 % |
===============================================================================
restarts              : 81915
conflicts             : 62420966       (11194 /sec)
decisions             : 126120884      (0.00 % random) (22616 /sec)
propagations          : 6748259547     (1210123 /sec)
conflict literals     : 3254804365     (21.79 % deleted)
CPU time              : 5576.51 s

SATISFIABLE
